p cnf 426 816
-7 -259 -85 0 
-85 -260 -92 0 
-92 -261 -99 0 
-99 -262 -106 0 
-7 -263 -85 0 
-85 -264 -92 0 
-92 -265 -99 0 
-99 -266 -106 0 
-7 -267 -85 0 
-85 -268 -92 0 
-92 -269 -99 0 
-99 -270 -106 0 
-7 -271 -85 0 
-85 -272 -92 0 
-92 -273 -99 0 
-99 -274 -106 0 
-7 -275 -85 0 
-85 -276 -92 0 
-92 -277 -99 0 
-99 -278 -106 0 
-7 -279 -85 0 
-85 -280 -92 0 
-92 -281 -99 0 
-99 -282 -106 0 
-14 -283 -107 0 
-107 -284 -114 0 
-114 -285 -121 0 
-121 -286 -128 0 
-14 -287 -107 0 
-107 -288 -114 0 
-114 -289 -121 0 
-121 -290 -128 0 
-14 -291 -107 0 
-107 -292 -114 0 
-114 -293 -121 0 
-121 -294 -128 0 
-14 -295 -107 0 
-107 -296 -114 0 
-114 -297 -121 0 
-121 -298 -128 0 
-14 -299 -107 0 
-107 -300 -114 0 
-114 -301 -121 0 
-121 -302 -128 0 
-14 -303 -107 0 
-107 -304 -114 0 
-114 -305 -121 0 
-121 -306 -128 0 
-21 -307 -129 0 
-129 -308 -136 0 
-136 -309 -143 0 
-143 -310 -150 0 
-21 -311 -129 0 
-129 -312 -136 0 
-136 -313 -143 0 
-143 -314 -150 0 
-21 -315 -129 0 
-129 -316 -136 0 
-136 -317 -143 0 
-143 -318 -150 0 
-21 -319 -129 0 
-129 -320 -136 0 
-136 -321 -143 0 
-143 -322 -150 0 
-21 -323 -129 0 
-129 -324 -136 0 
-136 -325 -143 0 
-143 -326 -150 0 
-21 -327 -129 0 
-129 -328 -136 0 
-136 -329 -143 0 
-143 -330 -150 0 
-28 -331 -151 0 
-151 -332 -158 0 
-158 -333 -165 0 
-165 -334 -172 0 
-28 -335 -151 0 
-151 -336 -158 0 
-158 -337 -165 0 
-165 -338 -172 0 
-28 -339 -151 0 
-151 -340 -158 0 
-158 -341 -165 0 
-165 -342 -172 0 
-28 -343 -151 0 
-151 -344 -158 0 
-158 -345 -165 0 
-165 -346 -172 0 
-28 -347 -151 0 
-151 -348 -158 0 
-158 -349 -165 0 
-165 -350 -172 0 
-28 -351 -151 0 
-151 -352 -158 0 
-158 -353 -165 0 
-165 -354 -172 0 
-35 -355 -173 0 
-173 -356 -180 0 
-180 -357 -187 0 
-187 -358 -194 0 
-35 -359 -173 0 
-173 -360 -180 0 
-180 -361 -187 0 
-187 -362 -194 0 
-35 -363 -173 0 
-173 -364 -180 0 
-180 -365 -187 0 
-187 -366 -194 0 
-35 -367 -173 0 
-173 -368 -180 0 
-180 -369 -187 0 
-187 -370 -194 0 
-35 -371 -173 0 
-173 -372 -180 0 
-180 -373 -187 0 
-187 -374 -194 0 
-35 -375 -173 0 
-173 -376 -180 0 
-180 -377 -187 0 
-187 -378 -194 0 
-42 -379 -195 0 
-195 -380 -202 0 
-202 -381 -209 0 
-209 -382 -216 0 
-42 -383 -195 0 
-195 -384 -202 0 
-202 -385 -209 0 
-209 -386 -216 0 
-42 -387 -195 0 
-195 -388 -202 0 
-202 -389 -209 0 
-209 -390 -216 0 
-42 -391 -195 0 
-195 -392 -202 0 
-202 -393 -209 0 
-209 -394 -216 0 
-42 -395 -195 0 
-195 -396 -202 0 
-202 -397 -209 0 
-209 -398 -216 0 
-42 -399 -195 0 
-195 -400 -202 0 
-202 -401 -209 0 
-209 -402 -216 0 
-49 -403 -217 0 
-217 -404 -219 0 
-219 -405 -221 0 
-221 -406 -223 0 
-51 -407 -224 0 
-224 -408 -226 0 
-226 -409 -228 0 
-228 -410 -230 0 
-53 -411 -231 0 
-231 -412 -233 0 
-233 -413 -235 0 
-235 -414 -237 0 
-55 -415 -238 0 
-238 -416 -240 0 
-240 -417 -242 0 
-242 -418 -244 0 
-57 -419 -245 0 
-245 -420 -247 0 
-247 -421 -249 0 
-249 -422 -251 0 
-59 -423 -252 0 
-252 -424 -254 0 
-254 -425 -256 0 
-256 -426 -258 0 
-1 61 0 
1 -61 0 
-61 62 0 
61 -62 0 
-62 63 0 
62 -63 0 
-63 64 0 
63 -64 0 
-2 65 0 
2 -65 0 
-65 66 0 
65 -66 0 
-66 67 0 
66 -67 0 
-67 68 0 
67 -68 0 
-3 69 0 
3 -69 0 
-69 70 0 
69 -70 0 
-70 71 0 
70 -71 0 
-71 72 0 
71 -72 0 
-4 73 0 
4 -73 0 
-73 74 0 
73 -74 0 
-74 75 0 
74 -75 0 
-75 76 0 
75 -76 0 
-5 77 0 
5 -77 0 
-77 78 0 
77 -78 0 
-78 79 0 
78 -79 0 
-79 80 0 
79 -80 0 
-6 81 0 
6 -81 0 
-81 82 0 
81 -82 0 
-82 83 0 
82 -83 0 
-83 84 0 
83 -84 0 
-7 -259 8 0 
-8 7 0 
-8 259 0 
-7 -263 9 0 
-9 7 0 
-9 263 0 
-7 -267 10 0 
-10 7 0 
-10 267 0 
-7 -271 11 0 
-11 7 0 
-11 271 0 
-7 -275 12 0 
-12 7 0 
-12 275 0 
-7 -279 13 0 
-13 7 0 
-13 279 0 
8 9 10 11 12 13 -7 85 0 
7 -85 0 
-85 -260 86 0 
-86 85 0 
-86 260 0 
-85 -264 87 0 
-87 85 0 
-87 264 0 
-85 -268 88 0 
-88 85 0 
-88 268 0 
-85 -272 89 0 
-89 85 0 
-89 272 0 
-85 -276 90 0 
-90 85 0 
-90 276 0 
-85 -280 91 0 
-91 85 0 
-91 280 0 
86 87 88 89 90 91 -85 92 0 
85 -92 0 
-92 -261 93 0 
-93 92 0 
-93 261 0 
-92 -265 94 0 
-94 92 0 
-94 265 0 
-92 -269 95 0 
-95 92 0 
-95 269 0 
-92 -273 96 0 
-96 92 0 
-96 273 0 
-92 -277 97 0 
-97 92 0 
-97 277 0 
-92 -281 98 0 
-98 92 0 
-98 281 0 
93 94 95 96 97 98 -92 99 0 
92 -99 0 
-99 -262 100 0 
-100 99 0 
-100 262 0 
-99 -266 101 0 
-101 99 0 
-101 266 0 
-99 -270 102 0 
-102 99 0 
-102 270 0 
-99 -274 103 0 
-103 99 0 
-103 274 0 
-99 -278 104 0 
-104 99 0 
-104 278 0 
-99 -282 105 0 
-105 99 0 
-105 282 0 
100 101 102 103 104 105 -99 106 0 
99 -106 0 
-14 -283 15 0 
-15 14 0 
-15 283 0 
-14 -287 16 0 
-16 14 0 
-16 287 0 
-14 -291 17 0 
-17 14 0 
-17 291 0 
-14 -295 18 0 
-18 14 0 
-18 295 0 
-14 -299 19 0 
-19 14 0 
-19 299 0 
-14 -303 20 0 
-20 14 0 
-20 303 0 
15 16 17 18 19 20 -14 107 0 
14 -107 0 
-107 -284 108 0 
-108 107 0 
-108 284 0 
-107 -288 109 0 
-109 107 0 
-109 288 0 
-107 -292 110 0 
-110 107 0 
-110 292 0 
-107 -296 111 0 
-111 107 0 
-111 296 0 
-107 -300 112 0 
-112 107 0 
-112 300 0 
-107 -304 113 0 
-113 107 0 
-113 304 0 
108 109 110 111 112 113 -107 114 0 
107 -114 0 
-114 -285 115 0 
-115 114 0 
-115 285 0 
-114 -289 116 0 
-116 114 0 
-116 289 0 
-114 -293 117 0 
-117 114 0 
-117 293 0 
-114 -297 118 0 
-118 114 0 
-118 297 0 
-114 -301 119 0 
-119 114 0 
-119 301 0 
-114 -305 120 0 
-120 114 0 
-120 305 0 
115 116 117 118 119 120 -114 121 0 
114 -121 0 
-121 -286 122 0 
-122 121 0 
-122 286 0 
-121 -290 123 0 
-123 121 0 
-123 290 0 
-121 -294 124 0 
-124 121 0 
-124 294 0 
-121 -298 125 0 
-125 121 0 
-125 298 0 
-121 -302 126 0 
-126 121 0 
-126 302 0 
-121 -306 127 0 
-127 121 0 
-127 306 0 
122 123 124 125 126 127 -121 128 0 
121 -128 0 
-21 -307 22 0 
-22 21 0 
-22 307 0 
-21 -311 23 0 
-23 21 0 
-23 311 0 
-21 -315 24 0 
-24 21 0 
-24 315 0 
-21 -319 25 0 
-25 21 0 
-25 319 0 
-21 -323 26 0 
-26 21 0 
-26 323 0 
-21 -327 27 0 
-27 21 0 
-27 327 0 
22 23 24 25 26 27 -21 129 0 
21 -129 0 
-129 -308 130 0 
-130 129 0 
-130 308 0 
-129 -312 131 0 
-131 129 0 
-131 312 0 
-129 -316 132 0 
-132 129 0 
-132 316 0 
-129 -320 133 0 
-133 129 0 
-133 320 0 
-129 -324 134 0 
-134 129 0 
-134 324 0 
-129 -328 135 0 
-135 129 0 
-135 328 0 
130 131 132 133 134 135 -129 136 0 
129 -136 0 
-136 -309 137 0 
-137 136 0 
-137 309 0 
-136 -313 138 0 
-138 136 0 
-138 313 0 
-136 -317 139 0 
-139 136 0 
-139 317 0 
-136 -321 140 0 
-140 136 0 
-140 321 0 
-136 -325 141 0 
-141 136 0 
-141 325 0 
-136 -329 142 0 
-142 136 0 
-142 329 0 
137 138 139 140 141 142 -136 143 0 
136 -143 0 
-143 -310 144 0 
-144 143 0 
-144 310 0 
-143 -314 145 0 
-145 143 0 
-145 314 0 
-143 -318 146 0 
-146 143 0 
-146 318 0 
-143 -322 147 0 
-147 143 0 
-147 322 0 
-143 -326 148 0 
-148 143 0 
-148 326 0 
-143 -330 149 0 
-149 143 0 
-149 330 0 
144 145 146 147 148 149 -143 150 0 
143 -150 0 
-28 -331 29 0 
-29 28 0 
-29 331 0 
-28 -335 30 0 
-30 28 0 
-30 335 0 
-28 -339 31 0 
-31 28 0 
-31 339 0 
-28 -343 32 0 
-32 28 0 
-32 343 0 
-28 -347 33 0 
-33 28 0 
-33 347 0 
-28 -351 34 0 
-34 28 0 
-34 351 0 
29 30 31 32 33 34 -28 151 0 
28 -151 0 
-151 -332 152 0 
-152 151 0 
-152 332 0 
-151 -336 153 0 
-153 151 0 
-153 336 0 
-151 -340 154 0 
-154 151 0 
-154 340 0 
-151 -344 155 0 
-155 151 0 
-155 344 0 
-151 -348 156 0 
-156 151 0 
-156 348 0 
-151 -352 157 0 
-157 151 0 
-157 352 0 
152 153 154 155 156 157 -151 158 0 
151 -158 0 
-158 -333 159 0 
-159 158 0 
-159 333 0 
-158 -337 160 0 
-160 158 0 
-160 337 0 
-158 -341 161 0 
-161 158 0 
-161 341 0 
-158 -345 162 0 
-162 158 0 
-162 345 0 
-158 -349 163 0 
-163 158 0 
-163 349 0 
-158 -353 164 0 
-164 158 0 
-164 353 0 
159 160 161 162 163 164 -158 165 0 
158 -165 0 
-165 -334 166 0 
-166 165 0 
-166 334 0 
-165 -338 167 0 
-167 165 0 
-167 338 0 
-165 -342 168 0 
-168 165 0 
-168 342 0 
-165 -346 169 0 
-169 165 0 
-169 346 0 
-165 -350 170 0 
-170 165 0 
-170 350 0 
-165 -354 171 0 
-171 165 0 
-171 354 0 
166 167 168 169 170 171 -165 172 0 
165 -172 0 
-35 -355 36 0 
-36 35 0 
-36 355 0 
-35 -359 37 0 
-37 35 0 
-37 359 0 
-35 -363 38 0 
-38 35 0 
-38 363 0 
-35 -367 39 0 
-39 35 0 
-39 367 0 
-35 -371 40 0 
-40 35 0 
-40 371 0 
-35 -375 41 0 
-41 35 0 
-41 375 0 
36 37 38 39 40 41 -35 173 0 
35 -173 0 
-173 -356 174 0 
-174 173 0 
-174 356 0 
-173 -360 175 0 
-175 173 0 
-175 360 0 
-173 -364 176 0 
-176 173 0 
-176 364 0 
-173 -368 177 0 
-177 173 0 
-177 368 0 
-173 -372 178 0 
-178 173 0 
-178 372 0 
-173 -376 179 0 
-179 173 0 
-179 376 0 
174 175 176 177 178 179 -173 180 0 
173 -180 0 
-180 -357 181 0 
-181 180 0 
-181 357 0 
-180 -361 182 0 
-182 180 0 
-182 361 0 
-180 -365 183 0 
-183 180 0 
-183 365 0 
-180 -369 184 0 
-184 180 0 
-184 369 0 
-180 -373 185 0 
-185 180 0 
-185 373 0 
-180 -377 186 0 
-186 180 0 
-186 377 0 
181 182 183 184 185 186 -180 187 0 
180 -187 0 
-187 -358 188 0 
-188 187 0 
-188 358 0 
-187 -362 189 0 
-189 187 0 
-189 362 0 
-187 -366 190 0 
-190 187 0 
-190 366 0 
-187 -370 191 0 
-191 187 0 
-191 370 0 
-187 -374 192 0 
-192 187 0 
-192 374 0 
-187 -378 193 0 
-193 187 0 
-193 378 0 
188 189 190 191 192 193 -187 194 0 
187 -194 0 
-42 -379 43 0 
-43 42 0 
-43 379 0 
-42 -383 44 0 
-44 42 0 
-44 383 0 
-42 -387 45 0 
-45 42 0 
-45 387 0 
-42 -391 46 0 
-46 42 0 
-46 391 0 
-42 -395 47 0 
-47 42 0 
-47 395 0 
-42 -399 48 0 
-48 42 0 
-48 399 0 
43 44 45 46 47 48 -42 195 0 
42 -195 0 
-195 -380 196 0 
-196 195 0 
-196 380 0 
-195 -384 197 0 
-197 195 0 
-197 384 0 
-195 -388 198 0 
-198 195 0 
-198 388 0 
-195 -392 199 0 
-199 195 0 
-199 392 0 
-195 -396 200 0 
-200 195 0 
-200 396 0 
-195 -400 201 0 
-201 195 0 
-201 400 0 
196 197 198 199 200 201 -195 202 0 
195 -202 0 
-202 -381 203 0 
-203 202 0 
-203 381 0 
-202 -385 204 0 
-204 202 0 
-204 385 0 
-202 -389 205 0 
-205 202 0 
-205 389 0 
-202 -393 206 0 
-206 202 0 
-206 393 0 
-202 -397 207 0 
-207 202 0 
-207 397 0 
-202 -401 208 0 
-208 202 0 
-208 401 0 
203 204 205 206 207 208 -202 209 0 
202 -209 0 
-209 -382 210 0 
-210 209 0 
-210 382 0 
-209 -386 211 0 
-211 209 0 
-211 386 0 
-209 -390 212 0 
-212 209 0 
-212 390 0 
-209 -394 213 0 
-213 209 0 
-213 394 0 
-209 -398 214 0 
-214 209 0 
-214 398 0 
-209 -402 215 0 
-215 209 0 
-215 402 0 
210 211 212 213 214 215 -209 216 0 
209 -216 0 
-49 -403 50 0 
-50 49 0 
-50 403 0 
50 -49 217 0 
49 -217 0 
-217 -404 218 0 
-218 217 0 
-218 404 0 
218 -217 219 0 
217 -219 0 
-219 -405 220 0 
-220 219 0 
-220 405 0 
220 -219 221 0 
219 -221 0 
-221 -406 222 0 
-222 221 0 
-222 406 0 
222 -221 223 0 
221 -223 0 
-51 -407 52 0 
-52 51 0 
-52 407 0 
52 -51 224 0 
51 -224 0 
-224 -408 225 0 
-225 224 0 
-225 408 0 
225 -224 226 0 
224 -226 0 
-226 -409 227 0 
-227 226 0 
-227 409 0 
227 -226 228 0 
226 -228 0 
-228 -410 229 0 
-229 228 0 
-229 410 0 
229 -228 230 0 
228 -230 0 
-53 -411 54 0 
-54 53 0 
-54 411 0 
54 -53 231 0 
53 -231 0 
-231 -412 232 0 
-232 231 0 
-232 412 0 
232 -231 233 0 
231 -233 0 
-233 -413 234 0 
-234 233 0 
-234 413 0 
234 -233 235 0 
233 -235 0 
-235 -414 236 0 
-236 235 0 
-236 414 0 
236 -235 237 0 
235 -237 0 
-55 -415 56 0 
-56 55 0 
-56 415 0 
56 -55 238 0 
55 -238 0 
-238 -416 239 0 
-239 238 0 
-239 416 0 
239 -238 240 0 
238 -240 0 
-240 -417 241 0 
-241 240 0 
-241 417 0 
241 -240 242 0 
240 -242 0 
-242 -418 243 0 
-243 242 0 
-243 418 0 
243 -242 244 0 
242 -244 0 
-57 -419 58 0 
-58 57 0 
-58 419 0 
58 -57 245 0 
57 -245 0 
-245 -420 246 0 
-246 245 0 
-246 420 0 
246 -245 247 0 
245 -247 0 
-247 -421 248 0 
-248 247 0 
-248 421 0 
248 -247 249 0 
247 -249 0 
-249 -422 250 0 
-250 249 0 
-250 422 0 
250 -249 251 0 
249 -251 0 
-59 -423 60 0 
-60 59 0 
-60 423 0 
60 -59 252 0 
59 -252 0 
-252 -424 253 0 
-253 252 0 
-253 424 0 
253 -252 254 0 
252 -254 0 
-254 -425 255 0 
-255 254 0 
-255 425 0 
255 -254 256 0 
254 -256 0 
-256 -426 257 0 
-257 256 0 
-257 426 0 
257 -256 258 0 
256 -258 0 
